(declare-const X String)
; ^((\d)?(\d{1})(\.{1})(\d)?(\d{1})){1}$
(assert (str.in.re X (re.++ ((_ re.loop 1 1) (re.++ (re.opt (re.range "0" "9")) ((_ re.loop 1 1) (re.range "0" "9")) ((_ re.loop 1 1) (str.to.re ".")) (re.opt (re.range "0" "9")) ((_ re.loop 1 1) (re.range "0" "9")))) (str.to.re "\x0a"))))
; ^\{[A-Fa-f\d]{8}-[A-Fa-f\d]{4}-[A-Fa-f0\d]{4}-[A-Fa-f\d]{4}-[A-Fa-f\d]{12}\}$
(assert (str.in.re X (re.++ (str.to.re "{") ((_ re.loop 8 8) (re.union (re.range "A" "F") (re.range "a" "f") (re.range "0" "9"))) (str.to.re "-") ((_ re.loop 4 4) (re.union (re.range "A" "F") (re.range "a" "f") (re.range "0" "9"))) (str.to.re "-") ((_ re.loop 4 4) (re.union (re.range "A" "F") (re.range "a" "f") (str.to.re "0") (re.range "0" "9"))) (str.to.re "-") ((_ re.loop 4 4) (re.union (re.range "A" "F") (re.range "a" "f") (re.range "0" "9"))) (str.to.re "-") ((_ re.loop 12 12) (re.union (re.range "A" "F") (re.range "a" "f") (re.range "0" "9"))) (str.to.re "}\x0a"))))
; Host\x3A[^\n\r]*Travel[^\n\r]*From\x3Awww\x2EZSearchResults\x2Ecom
(assert (str.in.re X (re.++ (str.to.re "Host:") (re.* (re.union (str.to.re "\x0a") (str.to.re "\x0d"))) (str.to.re "Travel") (re.* (re.union (str.to.re "\x0a") (str.to.re "\x0d"))) (str.to.re "From:www.ZSearchResults.com\x13\x0a"))))
; User-Agent\x3AServerHost\x3A
(assert (str.in.re X (str.to.re "User-Agent:ServerHost:\x0a")))
; (^(5[0678])\d{11,18}$)|(^(6[^05])\d{11,18}$)|(^(601)[^1]\d{9,16}$)|(^(6011)\d{9,11}$)|(^(6011)\d{13,16}$)|(^(65)\d{11,13}$)|(^(65)\d{15,18}$)|(^(49030)[2-9](\d{10}$|\d{12,13}$))|(^(49033)[5-9](\d{10}$|\d{12,13}$))|(^(49110)[1-2](\d{10}$|\d{12,13}$))|(^(49117)[4-9](\d{10}$|\d{12,13}$))|(^(49118)[0-2](\d{10}$|\d{12,13}$))|(^(4936)(\d{12}$|\d{14,15}$))
(assert (str.in.re X (re.union (re.++ ((_ re.loop 11 18) (re.range "0" "9")) (str.to.re "5") (re.union (str.to.re "0") (str.to.re "6") (str.to.re "7") (str.to.re "8"))) (re.++ ((_ re.loop 11 18) (re.range "0" "9")) (str.to.re "6") (re.union (str.to.re "0") (str.to.re "5"))) (re.++ (str.to.re "601") (re.comp (str.to.re "1")) ((_ re.loop 9 16) (re.range "0" "9"))) (re.++ (str.to.re "6011") ((_ re.loop 9 11) (re.range "0" "9"))) (re.++ (str.to.re "6011") ((_ re.loop 13 16) (re.range "0" "9"))) (re.++ (str.to.re "65") ((_ re.loop 11 13) (re.range "0" "9"))) (re.++ (str.to.re "65") ((_ re.loop 15 18) (re.range "0" "9"))) (re.++ (str.to.re "49030") (re.range "2" "9") (re.union ((_ re.loop 10 10) (re.range "0" "9")) ((_ re.loop 12 13) (re.range "0" "9")))) (re.++ (str.to.re "49033") (re.range "5" "9") (re.union ((_ re.loop 10 10) (re.range "0" "9")) ((_ re.loop 12 13) (re.range "0" "9")))) (re.++ (str.to.re "49110") (re.range "1" "2") (re.union ((_ re.loop 10 10) (re.range "0" "9")) ((_ re.loop 12 13) (re.range "0" "9")))) (re.++ (str.to.re "49117") (re.range "4" "9") (re.union ((_ re.loop 10 10) (re.range "0" "9")) ((_ re.loop 12 13) (re.range "0" "9")))) (re.++ (str.to.re "49118") (re.range "0" "2") (re.union ((_ re.loop 10 10) (re.range "0" "9")) ((_ re.loop 12 13) (re.range "0" "9")))) (re.++ (str.to.re "\x0a4936") (re.union ((_ re.loop 12 12) (re.range "0" "9")) ((_ re.loop 14 15) (re.range "0" "9")))))))
(check-sat)
